50
150
98
98
97
96
93
93
92
89
83
82
76
76
76
74
70
69
67
66
66
65
62
60
58
56
56
55
55
54
53
51
49
47
42
35
31
31
26
22
22
22
18
17
17
17
16
9
8
5
4
4
